InboundTrucks  = 12;
OutboundTrucks = 8;
InboundDoors   = 4;
OutboundDoors  = 4;
ReleaseTime    = [47,15,1,17,43,47,8,20,14,6,3,47];
UnloadTime     = [37,10,27,24,27,13,31,20,8,38,36,44];
LoadTime       = [28,3,22,19,22,17,7,8];
TransferTime   = [| 0,17,0,0,0,0,24,0 | 21,18,0,0,30,17,22,30 | 0,30,0,0,12,0,0,46 | 0,41,0,0,0,25,0,0 | 0,0,0,0,0,41,13,0 | 20,0,0,34,0,0,45,0 | 17,0,0,31,37,10,0,0 | 0,0,0,50,50,0,33,0 | 0,0,0,30,0,33,0,0 | 13,46,0,41,0,0,0,40 | 0,43,16,0,44,0,0,0 | 0,0,0,0,0,0,47,0 |];
